--------------------------------------------------
s SATISFIABLE
benchmarks_SAT/INST_36x36/100/inst36x36_100_0.cnf : 559 ms.
--------------------------------------------------
s SATISFIABLE
benchmarks_SAT/INST_36x36/100/inst36x36_100_10.cnf : 546 ms.
--------------------------------------------------
s SATISFIABLE
benchmarks_SAT/INST_36x36/100/inst36x36_100_11.cnf : 556 ms.
--------------------------------------------------
s SATISFIABLE
benchmarks_SAT/INST_36x36/100/inst36x36_100_12.cnf : 545 ms.
--------------------------------------------------
s SATISFIABLE
benchmarks_SAT/INST_36x36/100/inst36x36_100_13.cnf : 554 ms.
--------------------------------------------------
s SATISFIABLE
benchmarks_SAT/INST_36x36/100/inst36x36_100_14.cnf : 541 ms.
--------------------------------------------------
s SATISFIABLE
benchmarks_SAT/INST_36x36/100/inst36x36_100_15.cnf : 538 ms.
--------------------------------------------------
s SATISFIABLE
benchmarks_SAT/INST_36x36/100/inst36x36_100_16.cnf : 526 ms.
--------------------------------------------------
s SATISFIABLE
benchmarks_SAT/INST_36x36/100/inst36x36_100_17.cnf : 514 ms.
--------------------------------------------------
s SATISFIABLE
benchmarks_SAT/INST_36x36/100/inst36x36_100_18.cnf : 520 ms.
--------------------------------------------------
s SATISFIABLE
benchmarks_SAT/INST_36x36/100/inst36x36_100_19.cnf : 525 ms.
--------------------------------------------------
s SATISFIABLE
benchmarks_SAT/INST_36x36/100/inst36x36_100_1.cnf : 527 ms.
--------------------------------------------------
s SATISFIABLE
benchmarks_SAT/INST_36x36/100/inst36x36_100_20.cnf : 523 ms.
--------------------------------------------------
s SATISFIABLE
benchmarks_SAT/INST_36x36/100/inst36x36_100_21.cnf : 521 ms.
--------------------------------------------------
s SATISFIABLE
benchmarks_SAT/INST_36x36/100/inst36x36_100_22.cnf : 526 ms.
--------------------------------------------------
s SATISFIABLE
benchmarks_SAT/INST_36x36/100/inst36x36_100_23.cnf : 529 ms.
--------------------------------------------------
s SATISFIABLE
benchmarks_SAT/INST_36x36/100/inst36x36_100_24.cnf : 522 ms.
--------------------------------------------------
s SATISFIABLE
benchmarks_SAT/INST_36x36/100/inst36x36_100_25.cnf : 524 ms.
--------------------------------------------------
s SATISFIABLE
benchmarks_SAT/INST_36x36/100/inst36x36_100_26.cnf : 524 ms.
--------------------------------------------------
s SATISFIABLE
benchmarks_SAT/INST_36x36/100/inst36x36_100_27.cnf : 520 ms.
--------------------------------------------------
s SATISFIABLE
benchmarks_SAT/INST_36x36/100/inst36x36_100_28.cnf : 515 ms.
--------------------------------------------------
s SATISFIABLE
benchmarks_SAT/INST_36x36/100/inst36x36_100_29.cnf : 521 ms.
--------------------------------------------------
s SATISFIABLE
benchmarks_SAT/INST_36x36/100/inst36x36_100_2.cnf : 522 ms.
--------------------------------------------------
s SATISFIABLE
benchmarks_SAT/INST_36x36/100/inst36x36_100_30.cnf : 519 ms.
--------------------------------------------------
s SATISFIABLE
benchmarks_SAT/INST_36x36/100/inst36x36_100_31.cnf : 518 ms.
--------------------------------------------------
s SATISFIABLE
benchmarks_SAT/INST_36x36/100/inst36x36_100_32.cnf : 521 ms.
--------------------------------------------------
s SATISFIABLE
benchmarks_SAT/INST_36x36/100/inst36x36_100_33.cnf : 512 ms.
--------------------------------------------------
s SATISFIABLE
benchmarks_SAT/INST_36x36/100/inst36x36_100_34.cnf : 518 ms.
--------------------------------------------------
s SATISFIABLE
benchmarks_SAT/INST_36x36/100/inst36x36_100_35.cnf : 520 ms.
--------------------------------------------------
s SATISFIABLE
benchmarks_SAT/INST_36x36/100/inst36x36_100_36.cnf : 610 ms.
--------------------------------------------------
s SATISFIABLE
benchmarks_SAT/INST_36x36/100/inst36x36_100_37.cnf : 521 ms.
--------------------------------------------------
s SATISFIABLE
benchmarks_SAT/INST_36x36/100/inst36x36_100_38.cnf : 528 ms.
--------------------------------------------------
s SATISFIABLE
benchmarks_SAT/INST_36x36/100/inst36x36_100_39.cnf : 520 ms.
--------------------------------------------------
s SATISFIABLE
benchmarks_SAT/INST_36x36/100/inst36x36_100_3.cnf : 520 ms.
--------------------------------------------------
s SATISFIABLE
benchmarks_SAT/INST_36x36/100/inst36x36_100_40.cnf : 512 ms.
--------------------------------------------------
s SATISFIABLE
benchmarks_SAT/INST_36x36/100/inst36x36_100_41.cnf : 521 ms.
--------------------------------------------------
s SATISFIABLE
benchmarks_SAT/INST_36x36/100/inst36x36_100_42.cnf : 514 ms.
--------------------------------------------------
s SATISFIABLE
benchmarks_SAT/INST_36x36/100/inst36x36_100_43.cnf : 518 ms.
--------------------------------------------------
s SATISFIABLE
benchmarks_SAT/INST_36x36/100/inst36x36_100_44.cnf : 514 ms.
--------------------------------------------------
s SATISFIABLE
benchmarks_SAT/INST_36x36/100/inst36x36_100_45.cnf : 520 ms.
--------------------------------------------------
s SATISFIABLE
benchmarks_SAT/INST_36x36/100/inst36x36_100_46.cnf : 521 ms.
--------------------------------------------------
s SATISFIABLE
benchmarks_SAT/INST_36x36/100/inst36x36_100_47.cnf : 510 ms.
--------------------------------------------------
s SATISFIABLE
benchmarks_SAT/INST_36x36/100/inst36x36_100_48.cnf : 524 ms.
--------------------------------------------------
s SATISFIABLE
benchmarks_SAT/INST_36x36/100/inst36x36_100_49.cnf : 520 ms.
--------------------------------------------------
s SATISFIABLE
benchmarks_SAT/INST_36x36/100/inst36x36_100_4.cnf : 515 ms.
--------------------------------------------------
s SATISFIABLE
benchmarks_SAT/INST_36x36/100/inst36x36_100_50.cnf : 522 ms.
--------------------------------------------------
s SATISFIABLE
benchmarks_SAT/INST_36x36/100/inst36x36_100_51.cnf : 516 ms.
--------------------------------------------------
s SATISFIABLE
benchmarks_SAT/INST_36x36/100/inst36x36_100_52.cnf : 505 ms.
--------------------------------------------------
s SATISFIABLE
benchmarks_SAT/INST_36x36/100/inst36x36_100_53.cnf : 530 ms.
--------------------------------------------------
s SATISFIABLE
benchmarks_SAT/INST_36x36/100/inst36x36_100_54.cnf : 523 ms.
--------------------------------------------------
s SATISFIABLE
benchmarks_SAT/INST_36x36/100/inst36x36_100_55.cnf : 516 ms.
--------------------------------------------------
s SATISFIABLE
benchmarks_SAT/INST_36x36/100/inst36x36_100_56.cnf : 519 ms.
--------------------------------------------------
s SATISFIABLE
benchmarks_SAT/INST_36x36/100/inst36x36_100_57.cnf : 525 ms.
--------------------------------------------------
s SATISFIABLE
benchmarks_SAT/INST_36x36/100/inst36x36_100_58.cnf : 514 ms.
--------------------------------------------------
s SATISFIABLE
benchmarks_SAT/INST_36x36/100/inst36x36_100_59.cnf : 517 ms.
--------------------------------------------------
s SATISFIABLE
benchmarks_SAT/INST_36x36/100/inst36x36_100_5.cnf : 520 ms.
--------------------------------------------------
s SATISFIABLE
benchmarks_SAT/INST_36x36/100/inst36x36_100_60.cnf : 518 ms.
--------------------------------------------------
s SATISFIABLE
benchmarks_SAT/INST_36x36/100/inst36x36_100_61.cnf : 511 ms.
--------------------------------------------------
s SATISFIABLE
benchmarks_SAT/INST_36x36/100/inst36x36_100_62.cnf : 525 ms.
--------------------------------------------------
s SATISFIABLE
benchmarks_SAT/INST_36x36/100/inst36x36_100_63.cnf : 515 ms.
--------------------------------------------------
s SATISFIABLE
benchmarks_SAT/INST_36x36/100/inst36x36_100_64.cnf : 526 ms.
--------------------------------------------------
s SATISFIABLE
benchmarks_SAT/INST_36x36/100/inst36x36_100_65.cnf : 520 ms.
--------------------------------------------------
s SATISFIABLE
benchmarks_SAT/INST_36x36/100/inst36x36_100_66.cnf : 511 ms.
--------------------------------------------------
s SATISFIABLE
benchmarks_SAT/INST_36x36/100/inst36x36_100_67.cnf : 516 ms.
--------------------------------------------------
s SATISFIABLE
benchmarks_SAT/INST_36x36/100/inst36x36_100_68.cnf : 515 ms.
--------------------------------------------------
s SATISFIABLE
benchmarks_SAT/INST_36x36/100/inst36x36_100_69.cnf : 518 ms.
--------------------------------------------------
s SATISFIABLE
benchmarks_SAT/INST_36x36/100/inst36x36_100_6.cnf : 516 ms.
--------------------------------------------------
s SATISFIABLE
benchmarks_SAT/INST_36x36/100/inst36x36_100_70.cnf : 513 ms.
--------------------------------------------------
s SATISFIABLE
benchmarks_SAT/INST_36x36/100/inst36x36_100_71.cnf : 517 ms.
--------------------------------------------------
s SATISFIABLE
benchmarks_SAT/INST_36x36/100/inst36x36_100_72.cnf : 510 ms.
--------------------------------------------------
s SATISFIABLE
benchmarks_SAT/INST_36x36/100/inst36x36_100_73.cnf : 513 ms.
--------------------------------------------------
s SATISFIABLE
benchmarks_SAT/INST_36x36/100/inst36x36_100_74.cnf : 512 ms.
--------------------------------------------------
s SATISFIABLE
benchmarks_SAT/INST_36x36/100/inst36x36_100_75.cnf : 513 ms.
--------------------------------------------------
s SATISFIABLE
benchmarks_SAT/INST_36x36/100/inst36x36_100_76.cnf : 508 ms.
--------------------------------------------------
s SATISFIABLE
benchmarks_SAT/INST_36x36/100/inst36x36_100_77.cnf : 519 ms.
--------------------------------------------------
s SATISFIABLE
benchmarks_SAT/INST_36x36/100/inst36x36_100_78.cnf : 509 ms.
--------------------------------------------------
s SATISFIABLE
benchmarks_SAT/INST_36x36/100/inst36x36_100_79.cnf : 516 ms.
--------------------------------------------------
s SATISFIABLE
benchmarks_SAT/INST_36x36/100/inst36x36_100_7.cnf : 510 ms.
--------------------------------------------------
s SATISFIABLE
benchmarks_SAT/INST_36x36/100/inst36x36_100_80.cnf : 506 ms.
--------------------------------------------------
s SATISFIABLE
benchmarks_SAT/INST_36x36/100/inst36x36_100_81.cnf : 510 ms.
--------------------------------------------------
s SATISFIABLE
benchmarks_SAT/INST_36x36/100/inst36x36_100_82.cnf : 503 ms.
--------------------------------------------------
s SATISFIABLE
benchmarks_SAT/INST_36x36/100/inst36x36_100_83.cnf : 514 ms.
--------------------------------------------------
s SATISFIABLE
benchmarks_SAT/INST_36x36/100/inst36x36_100_84.cnf : 516 ms.
--------------------------------------------------
s SATISFIABLE
benchmarks_SAT/INST_36x36/100/inst36x36_100_85.cnf : 513 ms.
--------------------------------------------------
s SATISFIABLE
benchmarks_SAT/INST_36x36/100/inst36x36_100_86.cnf : 518 ms.
--------------------------------------------------
s SATISFIABLE
benchmarks_SAT/INST_36x36/100/inst36x36_100_87.cnf : 521 ms.
--------------------------------------------------
s SATISFIABLE
benchmarks_SAT/INST_36x36/100/inst36x36_100_88.cnf : 538 ms.
--------------------------------------------------
s SATISFIABLE
benchmarks_SAT/INST_36x36/100/inst36x36_100_89.cnf : 513 ms.
--------------------------------------------------
s SATISFIABLE
benchmarks_SAT/INST_36x36/100/inst36x36_100_8.cnf : 535 ms.
--------------------------------------------------
s SATISFIABLE
benchmarks_SAT/INST_36x36/100/inst36x36_100_90.cnf : 520 ms.
--------------------------------------------------
s SATISFIABLE
benchmarks_SAT/INST_36x36/100/inst36x36_100_91.cnf : 518 ms.
--------------------------------------------------
s SATISFIABLE
benchmarks_SAT/INST_36x36/100/inst36x36_100_92.cnf : 519 ms.
--------------------------------------------------
s SATISFIABLE
benchmarks_SAT/INST_36x36/100/inst36x36_100_93.cnf : 510 ms.
--------------------------------------------------
s SATISFIABLE
benchmarks_SAT/INST_36x36/100/inst36x36_100_94.cnf : 511 ms.
--------------------------------------------------
s SATISFIABLE
benchmarks_SAT/INST_36x36/100/inst36x36_100_95.cnf : 507 ms.
--------------------------------------------------
s SATISFIABLE
benchmarks_SAT/INST_36x36/100/inst36x36_100_96.cnf : 507 ms.
--------------------------------------------------
s SATISFIABLE
benchmarks_SAT/INST_36x36/100/inst36x36_100_97.cnf : 509 ms.
--------------------------------------------------
s SATISFIABLE
benchmarks_SAT/INST_36x36/100/inst36x36_100_98.cnf : 517 ms.
--------------------------------------------------
s SATISFIABLE
benchmarks_SAT/INST_36x36/100/inst36x36_100_99.cnf : 511 ms.
--------------------------------------------------
s SATISFIABLE
benchmarks_SAT/INST_36x36/100/inst36x36_100_9.cnf : 512 ms.
